50, 8025
252, 300
84, 100
294, 350
84, 41
42, 50
588, 287
420, 500
294, 350
168, 82
504, 246
168, 82
84, 41
210, 250
252, 300
210, 250
420, 205
420, 500
378, 450
336, 164
252, 123
672, 328
756, 369
420, 500
84, 41
840, 410
840, 410
42, 50
672, 328
84, 41
420, 500
168, 82
168, 82
672, 328
504, 246
84, 100
84, 100
168, 82
252, 123
420, 500
168, 200
252, 123
378, 450
84, 100
252, 123
672, 328
252, 123
42, 50
126, 150
336, 164
840, 410
